III/MDIO/TP2/89612.txt
19
30
1 2 0 120
1 3 0 74
1 4 0 80
1 5 0 109
1 6 0 35
1 7 0 90
1 8 0 20
1 9 0 30
1 10 0 31
1 11 0 46
1 12 0 9
1 13 0 7
2 18 0 1000
3 17 0 1000
4 17 0 1000
5 17 0 1000
6 16 0 1000
7 16 0 1000
8 15 0 1000
9 15 0 1000
10 15 0 1000
11 15 0 1000
12 14 0 1000
13 14 0 1000
14 19 0 0
15 19 0 3
16 19 0 11
17 19 0 26
18 19 0 50
19 1 -1 1000
0
0
0
0
0
0
0
0
0
0
0
0
0
0
0
0
0
0
0
